benchmark/results/graph__15-1000-0.10-04_7/graph__15-1000-0.10-04_7_QuintonOs_Benders_primal_sub.lp
\ This file has been generated by DOcplex
\ ENCODING=ISO-8859-1
\Problem name: Quinton Bounded Benders_primal_sub

Maximize
 obj: tau
Subject To
 c1: tau <= 0.000959692898
 c2: y_a0_proc_0 + y_a0_proc_3 - tau = 0
 c3: y_a0_proc_0 <= 1
 c4: y_a0_proc_3 <= 0
 c5: tau <= 0.001008064516
 c6: y_a1_proc_0 + y_a1_proc_1 + y_a1_proc_2 + y_a1_proc_3 - tau = 0
 c7: y_a1_proc_0 <= 0
 c8: y_a1_proc_1 <= 0
 c9: y_a1_proc_2 <= 1
 c10: y_a1_proc_3 <= 0
 c11: tau <= 0.000801282051
 c12: y_a2_proc_0 + y_a2_proc_1 + y_a2_proc_2 + y_a2_proc_3 - tau = 0
 c13: y_a2_proc_0 <= 1
 c14: y_a2_proc_1 <= 0
 c15: y_a2_proc_2 <= 0
 c16: y_a2_proc_3 <= 0
 c17: tau <= 0.001123595506
 c18: y_a3_proc_0 + y_a3_proc_1 + y_a3_proc_2 + y_a3_proc_3 - tau = 0
 c19: y_a3_proc_0 <= 0
 c20: y_a3_proc_1 <= 0
 c21: y_a3_proc_2 <= 1
 c22: y_a3_proc_3 <= 0
 c23: tau <= 0.001602564103
 c24: y_a4_proc_1 + y_a4_proc_2 + y_a4_proc_3 - tau = 0
 c25: y_a4_proc_1 <= 0
 c26: y_a4_proc_2 <= 1
 c27: y_a4_proc_3 <= 0
 c28: tau <= 0.000940733772
 c29: y_a5_proc_0 + y_a5_proc_1 + y_a5_proc_2 - tau = 0
 c30: y_a5_proc_0 <= 0
 c31: y_a5_proc_1 <= 1
 c32: y_a5_proc_2 <= 0
 c33: tau <= 0.001203369434
 c34: y_a6_proc_0 + y_a6_proc_2 + y_a6_proc_3 - tau = 0
 c35: y_a6_proc_0 <= 0
 c36: y_a6_proc_2 <= 0
 c37: y_a6_proc_3 <= 1
 c38: tau <= 0.001062699256
 c39: y_a7_proc_0 + y_a7_proc_1 + y_a7_proc_2 + y_a7_proc_3 - tau = 0
 c40: y_a7_proc_0 <= 1
 c41: y_a7_proc_1 <= 0
 c42: y_a7_proc_2 <= 0
 c43: y_a7_proc_3 <= 0
 c44: tau <= 0.001179245283
 c45: y_a8_proc_0 + y_a8_proc_2 + y_a8_proc_3 - tau = 0
 c46: y_a8_proc_0 <= 0
 c47: y_a8_proc_2 <= 0
 c48: y_a8_proc_3 <= 1
 c49: tau <= 0.000920810313
 c50: y_a9_proc_0 + y_a9_proc_2 - tau = 0
 c51: y_a9_proc_0 <= 0
 c52: y_a9_proc_2 <= 1
 c53: tau <= 0.001303780965
 c54: y_a10_proc_0 + y_a10_proc_1 + y_a10_proc_2 - tau = 0
 c55: y_a10_proc_0 <= 0
 c56: y_a10_proc_1 <= 1
 c57: y_a10_proc_2 <= 0
 c58: tau <= 0.001620745543
 c59: y_a11_proc_1 + y_a11_proc_2 + y_a11_proc_3 - tau = 0
 c60: y_a11_proc_1 <= 0
 c61: y_a11_proc_2 <= 0
 c62: y_a11_proc_3 <= 1
 c63: tau <= 0.001400560224
 c64: y_a12_proc_1 - tau = 0
 c65: y_a12_proc_1 <= 1
 c66: tau <= 0.001712328767
 c67: y_a13_proc_2 + y_a13_proc_3 - tau = 0
 c68: y_a13_proc_2 <= 0
 c69: y_a13_proc_3 <= 1
 c70: tau <= 0.001100110011
 c71: y_a14_proc_0 + y_a14_proc_2 + y_a14_proc_3 - tau = 0
 c72: y_a14_proc_0 <= 1
 c73: y_a14_proc_2 <= 0
 c74: y_a14_proc_3 <= 0
 c75: u_a1 - u_a0 - 1042 y_a0_proc_0 - 1248 y_a0_proc_3 >= -2
 c76: u_a0 - u_a2 - 1248 y_a2_proc_0 - 868 y_a2_proc_1 - 1091 y_a2_proc_2
      - 723 y_a2_proc_3 >= 0
 c77: u_a3 - u_a1 - 651 y_a1_proc_0 - 771 y_a1_proc_1 - 992 y_a1_proc_2
      - 1290 y_a1_proc_3 >= -1
 c78: u_a0 - u_a4 - 1024 y_a4_proc_1 - 624 y_a4_proc_2 - 742 y_a4_proc_3 >= 0
 c79: u_a5 - u_a4 - 1024 y_a4_proc_1 - 624 y_a4_proc_2 - 742 y_a4_proc_3 >= 0
 c80: u_a6 - u_a2 - 1248 y_a2_proc_0 - 868 y_a2_proc_1 - 1091 y_a2_proc_2
      - 723 y_a2_proc_3 >= -1
 c81: u_a5 - u_a7 - 941 y_a7_proc_0 - 1258 y_a7_proc_1 - 928 y_a7_proc_2
      - 917 y_a7_proc_3 >= 0
 c82: u_a8 - u_a5 - 1269 y_a5_proc_0 - 1063 y_a5_proc_1 - 1147 y_a5_proc_2 >= 
      -1
 c83: u_a3 - u_a9 - 1117 y_a9_proc_0 - 1086 y_a9_proc_2 >= -1
 c84: u_a9 - u_a10 - 889 y_a10_proc_0 - 767 y_a10_proc_1 - 1204 y_a10_proc_2
       >= 0
 c85: u_a9 - u_a11 - 1226 y_a11_proc_1 - 959 y_a11_proc_2 - 617 y_a11_proc_3
       >= 0
 c86: u_a12 - u_a5 - 1269 y_a5_proc_0 - 1063 y_a5_proc_1 - 1147 y_a5_proc_2 >= 
      -1
 c87: u_a13 - u_a7 - 941 y_a7_proc_0 - 1258 y_a7_proc_1 - 928 y_a7_proc_2
      - 917 y_a7_proc_3 >= 0
 c88: u_a14 - u_a13 - 692 y_a13_proc_2 - 584 y_a13_proc_3 >= 0
 c89: u_a4 - u_a3 - 1029 y_a3_proc_0 - 754 y_a3_proc_1 - 890 y_a3_proc_2
      - 758 y_a3_proc_3 >= 0
 c90: u_a7 - u_a9 - 1117 y_a9_proc_0 - 1086 y_a9_proc_2 >= 0
 c91: u_a3 - u_a13 - 692 y_a13_proc_2 - 584 y_a13_proc_3 >= -2
 c92: u_a11 - u_a14 - 909 y_a14_proc_0 - 983 y_a14_proc_2 - 931 y_a14_proc_3
       >= -1
 c93: u_a8 - u_a6 - 1184 y_a6_proc_0 - 1166 y_a6_proc_2 - 831 y_a6_proc_3 >= -1
 c94: u_a1 - u_a12 - 714 y_a12_proc_1 >= 0
 c95: u_a10 - u_a5 - 1269 y_a5_proc_0 - 1063 y_a5_proc_1 - 1147 y_a5_proc_2 >= 
      -1
 c96: u_a0 - u_a14 - 909 y_a14_proc_0 - 983 y_a14_proc_2 - 931 y_a14_proc_3 >= 
      -1
 c97: u_a2 - u_a13 - 692 y_a13_proc_2 - 584 y_a13_proc_3 >= -1
 c98: u_a6 - u_a9 - 1117 y_a9_proc_0 - 1086 y_a9_proc_2 >= 0
 c99: u_a10 - u_a11 - 1226 y_a11_proc_1 - 959 y_a11_proc_2 - 617 y_a11_proc_3
       >= 0
 c100: u_a9 - u_a3 - 1029 y_a3_proc_0 - 754 y_a3_proc_1 - 890 y_a3_proc_2
       - 758 y_a3_proc_3 >= 0
 c101: u_a11 - u_a8 - 1251 y_a8_proc_0 - 1072 y_a8_proc_2 - 848 y_a8_proc_3 >= 
       0
 c102: u_a6 - u_a11 - 1226 y_a11_proc_1 - 959 y_a11_proc_2 - 617 y_a11_proc_3
        >= 0
 c103: u_a1 - u_a0 - 1042 y_a0_proc_0 >= -1309
 c104: u_a1 - u_a0 - 1248 y_a0_proc_3 >= -2599
 c105: u_a0 - u_a1 - 651 y_a1_proc_0 >= -1272
 c106: u_a0 - u_a1 - 1290 y_a1_proc_3 >= -2562
 c107: u_a2 - u_a0 - 1042 y_a0_proc_0 >= -1
 c108: u_a2 - u_a0 - 1248 y_a0_proc_3 >= -2581
 c109: u_a0 - u_a2 - 1248 y_a2_proc_0 >= 0
 c110: u_a0 - u_a2 - 723 y_a2_proc_3 >= -2580
 c111: u_a3 - u_a0 - 1042 y_a0_proc_0 >= -1272
 c112: u_a3 - u_a0 - 1248 y_a0_proc_3 >= -2562
 c113: u_a0 - u_a3 - 1029 y_a3_proc_0 >= -1309
 c114: u_a0 - u_a3 - 758 y_a3_proc_3 >= -2599
 c115: u_a4 - u_a0 - 1248 y_a0_proc_3 >= -2599
 c116: u_a0 - u_a4 - 742 y_a4_proc_3 >= -2562
 c117: u_a5 - u_a0 - 1042 y_a0_proc_0 >= -1272
 c118: u_a0 - u_a5 - 1269 y_a5_proc_0 >= -1309
 c119: u_a6 - u_a0 - 1042 y_a0_proc_0 >= -1309
 c120: u_a6 - u_a0 - 1248 y_a0_proc_3 >= -1309
 c121: u_a0 - u_a6 - 1184 y_a6_proc_0 >= -1272
 c122: u_a0 - u_a6 - 831 y_a6_proc_3 >= -1272
 c123: u_a7 - u_a0 - 1042 y_a0_proc_0 >= -1
 c124: u_a7 - u_a0 - 1248 y_a0_proc_3 >= -2581
 c125: u_a0 - u_a7 - 941 y_a7_proc_0 >= 0
 c126: u_a0 - u_a7 - 917 y_a7_proc_3 >= -2580
 c127: u_a8 - u_a0 - 1042 y_a0_proc_0 >= -1272
 c128: u_a8 - u_a0 - 1248 y_a0_proc_3 >= -1272
 c129: u_a0 - u_a8 - 1251 y_a8_proc_0 >= -1309
 c130: u_a0 - u_a8 - 848 y_a8_proc_3 >= -1309
 c131: u_a9 - u_a0 - 1042 y_a0_proc_0 >= -1309
 c132: u_a0 - u_a9 - 1117 y_a9_proc_0 >= -1272
 c133: u_a10 - u_a0 - 1042 y_a0_proc_0 >= -1272
 c134: u_a0 - u_a10 - 889 y_a10_proc_0 >= -1309
 c135: u_a11 - u_a0 - 1248 y_a0_proc_3 >= -1272
 c136: u_a0 - u_a11 - 617 y_a11_proc_3 >= -1309
 c137: u_a13 - u_a0 - 1248 y_a0_proc_3 >= -1309
 c138: u_a0 - u_a13 - 584 y_a13_proc_3 >= -1272
 c139: u_a14 - u_a0 - 1042 y_a0_proc_0 >= -1
 c140: u_a14 - u_a0 - 1248 y_a0_proc_3 >= -2581
 c141: u_a0 - u_a14 - 909 y_a14_proc_0 >= 0
 c142: u_a0 - u_a14 - 931 y_a14_proc_3 >= -2580
 c143: u_a2 - u_a1 - 651 y_a1_proc_0 >= -1309
 c144: u_a2 - u_a1 - 992 y_a1_proc_2 >= -1309
 c145: u_a2 - u_a1 - 771 y_a1_proc_1 >= -2599
 c146: u_a2 - u_a1 - 1290 y_a1_proc_3 >= -2599
 c147: u_a1 - u_a2 - 1248 y_a2_proc_0 >= -1272
 c148: u_a1 - u_a2 - 1091 y_a2_proc_2 >= -1272
 c149: u_a1 - u_a2 - 868 y_a2_proc_1 >= -2562
 c150: u_a1 - u_a2 - 723 y_a2_proc_3 >= -2562
 c151: u_a3 - u_a1 - 651 y_a1_proc_0 >= -2581
 c152: u_a3 - u_a1 - 992 y_a1_proc_2 >= -1
 c153: u_a3 - u_a1 - 771 y_a1_proc_1 >= -2581
 c154: u_a3 - u_a1 - 1290 y_a1_proc_3 >= -2581
 c155: u_a1 - u_a3 - 1029 y_a3_proc_0 >= -2580
 c156: u_a1 - u_a3 - 890 y_a3_proc_2 >= 0
 c157: u_a1 - u_a3 - 754 y_a3_proc_1 >= -2580
 c158: u_a1 - u_a3 - 758 y_a3_proc_3 >= -2580
 c159: u_a4 - u_a1 - 992 y_a1_proc_2 >= -1
 c160: u_a4 - u_a1 - 771 y_a1_proc_1 >= -2581
 c161: u_a4 - u_a1 - 1290 y_a1_proc_3 >= -2581
 c162: u_a1 - u_a4 - 624 y_a4_proc_2 >= 0
 c163: u_a1 - u_a4 - 1024 y_a4_proc_1 >= -2580
 c164: u_a1 - u_a4 - 742 y_a4_proc_3 >= -2580
 c165: u_a5 - u_a1 - 651 y_a1_proc_0 >= -2599
 c166: u_a5 - u_a1 - 992 y_a1_proc_2 >= -1309
 c167: u_a5 - u_a1 - 771 y_a1_proc_1 >= -1309
 c168: u_a1 - u_a5 - 1269 y_a5_proc_0 >= -2562
 c169: u_a1 - u_a5 - 1147 y_a5_proc_2 >= -1272
 c170: u_a1 - u_a5 - 1063 y_a5_proc_1 >= -1272
 c171: u_a6 - u_a1 - 651 y_a1_proc_0 >= -2562
 c172: u_a6 - u_a1 - 992 y_a1_proc_2 >= -1272
 c173: u_a6 - u_a1 - 1290 y_a1_proc_3 >= -1272
 c174: u_a1 - u_a6 - 1184 y_a6_proc_0 >= -2599
 c175: u_a1 - u_a6 - 1166 y_a6_proc_2 >= -1309
 c176: u_a1 - u_a6 - 831 y_a6_proc_3 >= -1309
 c177: u_a7 - u_a1 - 651 y_a1_proc_0 >= -1309
 c178: u_a7 - u_a1 - 992 y_a1_proc_2 >= -1309
 c179: u_a7 - u_a1 - 771 y_a1_proc_1 >= -2599
 c180: u_a7 - u_a1 - 1290 y_a1_proc_3 >= -2599
 c181: u_a1 - u_a7 - 941 y_a7_proc_0 >= -1272
 c182: u_a1 - u_a7 - 928 y_a7_proc_2 >= -1272
 c183: u_a1 - u_a7 - 1258 y_a7_proc_1 >= -2562
 c184: u_a1 - u_a7 - 917 y_a7_proc_3 >= -2562
 c185: u_a8 - u_a1 - 651 y_a1_proc_0 >= -2599
 c186: u_a8 - u_a1 - 992 y_a1_proc_2 >= -1309
 c187: u_a8 - u_a1 - 1290 y_a1_proc_3 >= -1309
 c188: u_a1 - u_a8 - 1251 y_a8_proc_0 >= -2562
 c189: u_a1 - u_a8 - 1072 y_a8_proc_2 >= -1272
 c190: u_a1 - u_a8 - 848 y_a8_proc_3 >= -1272
 c191: u_a9 - u_a1 - 651 y_a1_proc_0 >= -2581
 c192: u_a9 - u_a1 - 992 y_a1_proc_2 >= -1
 c193: u_a1 - u_a9 - 1117 y_a9_proc_0 >= -2580
 c194: u_a1 - u_a9 - 1086 y_a9_proc_2 >= 0
 c195: u_a10 - u_a1 - 651 y_a1_proc_0 >= -2599
 c196: u_a10 - u_a1 - 992 y_a1_proc_2 >= -1309
 c197: u_a10 - u_a1 - 771 y_a1_proc_1 >= -1309
 c198: u_a1 - u_a10 - 889 y_a10_proc_0 >= -2562
 c199: u_a1 - u_a10 - 1204 y_a10_proc_2 >= -1272
 c200: u_a1 - u_a10 - 767 y_a10_proc_1 >= -1272
 c201: u_a11 - u_a1 - 992 y_a1_proc_2 >= -1309
 c202: u_a11 - u_a1 - 771 y_a1_proc_1 >= -2599
 c203: u_a11 - u_a1 - 1290 y_a1_proc_3 >= -1309
 c204: u_a1 - u_a11 - 959 y_a11_proc_2 >= -1272
 c205: u_a1 - u_a11 - 1226 y_a11_proc_1 >= -2562
 c206: u_a1 - u_a11 - 617 y_a11_proc_3 >= -1272
 c207: u_a12 - u_a1 - 771 y_a1_proc_1 >= -1272
 c208: u_a1 - u_a12 - 714 y_a12_proc_1 >= -1309
 c209: u_a13 - u_a1 - 992 y_a1_proc_2 >= -1272
 c210: u_a13 - u_a1 - 1290 y_a1_proc_3 >= -1272
 c211: u_a1 - u_a13 - 692 y_a13_proc_2 >= -1309
 c212: u_a1 - u_a13 - 584 y_a13_proc_3 >= -1309
 c213: u_a14 - u_a1 - 651 y_a1_proc_0 >= -1272
 c214: u_a14 - u_a1 - 992 y_a1_proc_2 >= -1272
 c215: u_a14 - u_a1 - 1290 y_a1_proc_3 >= -2562
 c216: u_a1 - u_a14 - 909 y_a14_proc_0 >= -1309
 c217: u_a1 - u_a14 - 983 y_a14_proc_2 >= -1309
 c218: u_a1 - u_a14 - 931 y_a14_proc_3 >= -2599
 c219: u_a3 - u_a2 - 1248 y_a2_proc_0 >= -1309
 c220: u_a3 - u_a2 - 1091 y_a2_proc_2 >= -1309
 c221: u_a3 - u_a2 - 868 y_a2_proc_1 >= -2599
 c222: u_a3 - u_a2 - 723 y_a2_proc_3 >= -2599
 c223: u_a2 - u_a3 - 1029 y_a3_proc_0 >= -1272
 c224: u_a2 - u_a3 - 890 y_a3_proc_2 >= -1272
 c225: u_a2 - u_a3 - 754 y_a3_proc_1 >= -2562
 c226: u_a2 - u_a3 - 758 y_a3_proc_3 >= -2562
 c227: u_a4 - u_a2 - 1091 y_a2_proc_2 >= -1272
 c228: u_a4 - u_a2 - 868 y_a2_proc_1 >= -2562
 c229: u_a4 - u_a2 - 723 y_a2_proc_3 >= -2562
 c230: u_a2 - u_a4 - 624 y_a4_proc_2 >= -1309
 c231: u_a2 - u_a4 - 1024 y_a4_proc_1 >= -2599
 c232: u_a2 - u_a4 - 742 y_a4_proc_3 >= -2599
 c233: u_a5 - u_a2 - 1248 y_a2_proc_0 >= -1309
 c234: u_a5 - u_a2 - 1091 y_a2_proc_2 >= -2599
 c235: u_a5 - u_a2 - 868 y_a2_proc_1 >= -1309
 c236: u_a2 - u_a5 - 1269 y_a5_proc_0 >= -1272
 c237: u_a2 - u_a5 - 1147 y_a5_proc_2 >= -2562
 c238: u_a2 - u_a5 - 1063 y_a5_proc_1 >= -1272
 c239: u_a6 - u_a2 - 1248 y_a2_proc_0 >= -1309
 c240: u_a6 - u_a2 - 1091 y_a2_proc_2 >= -2599
 c241: u_a6 - u_a2 - 723 y_a2_proc_3 >= -1309
 c242: u_a2 - u_a6 - 1184 y_a6_proc_0 >= -1272
 c243: u_a2 - u_a6 - 1166 y_a6_proc_2 >= -2562
 c244: u_a2 - u_a6 - 831 y_a6_proc_3 >= -1272
 c245: u_a7 - u_a2 - 1248 y_a2_proc_0 >= -1
 c246: u_a7 - u_a2 - 1091 y_a2_proc_2 >= -2581
 c247: u_a7 - u_a2 - 868 y_a2_proc_1 >= -2581
 c248: u_a7 - u_a2 - 723 y_a2_proc_3 >= -2581
 c249: u_a2 - u_a7 - 941 y_a7_proc_0 >= 0
 c250: u_a2 - u_a7 - 928 y_a7_proc_2 >= -2580
 c251: u_a2 - u_a7 - 1258 y_a7_proc_1 >= -2580
 c252: u_a2 - u_a7 - 917 y_a7_proc_3 >= -2580
 c253: u_a8 - u_a2 - 1248 y_a2_proc_0 >= -1272
 c254: u_a8 - u_a2 - 1091 y_a2_proc_2 >= -2562
 c255: u_a8 - u_a2 - 723 y_a2_proc_3 >= -1272
 c256: u_a2 - u_a8 - 1251 y_a8_proc_0 >= -1309
 c257: u_a2 - u_a8 - 1072 y_a8_proc_2 >= -2599
 c258: u_a2 - u_a8 - 848 y_a8_proc_3 >= -1309
 c259: u_a9 - u_a2 - 1248 y_a2_proc_0 >= -1309
 c260: u_a9 - u_a2 - 1091 y_a2_proc_2 >= -1309
 c261: u_a2 - u_a9 - 1117 y_a9_proc_0 >= -1272
 c262: u_a2 - u_a9 - 1086 y_a9_proc_2 >= -1272
 c263: u_a10 - u_a2 - 1248 y_a2_proc_0 >= -1309
 c264: u_a10 - u_a2 - 1091 y_a2_proc_2 >= -2599
 c265: u_a10 - u_a2 - 868 y_a2_proc_1 >= -1309
 c266: u_a2 - u_a10 - 889 y_a10_proc_0 >= -1272
 c267: u_a2 - u_a10 - 1204 y_a10_proc_2 >= -2562
 c268: u_a2 - u_a10 - 767 y_a10_proc_1 >= -1272
 c269: u_a11 - u_a2 - 1091 y_a2_proc_2 >= -2599
 c270: u_a11 - u_a2 - 868 y_a2_proc_1 >= -2599
 c271: u_a11 - u_a2 - 723 y_a2_proc_3 >= -1309
 c272: u_a2 - u_a11 - 959 y_a11_proc_2 >= -2562
 c273: u_a2 - u_a11 - 1226 y_a11_proc_1 >= -2562
 c274: u_a2 - u_a11 - 617 y_a11_proc_3 >= -1272
 c275: u_a12 - u_a2 - 868 y_a2_proc_1 >= -1309
 c276: u_a2 - u_a12 - 714 y_a12_proc_1 >= -1272
 c277: u_a13 - u_a2 - 1091 y_a2_proc_2 >= -2599
 c278: u_a13 - u_a2 - 723 y_a2_proc_3 >= -1309
 c279: u_a2 - u_a13 - 692 y_a13_proc_2 >= -2562
 c280: u_a2 - u_a13 - 584 y_a13_proc_3 >= -1272
 c281: u_a14 - u_a2 - 1248 y_a2_proc_0 >= -1
 c282: u_a14 - u_a2 - 1091 y_a2_proc_2 >= -2581
 c283: u_a14 - u_a2 - 723 y_a2_proc_3 >= -2581
 c284: u_a2 - u_a14 - 909 y_a14_proc_0 >= 0
 c285: u_a2 - u_a14 - 983 y_a14_proc_2 >= -2580
 c286: u_a2 - u_a14 - 931 y_a14_proc_3 >= -2580
 c287: u_a4 - u_a3 - 890 y_a3_proc_2 >= 0
 c288: u_a4 - u_a3 - 754 y_a3_proc_1 >= -2580
 c289: u_a4 - u_a3 - 758 y_a3_proc_3 >= -2580
 c290: u_a3 - u_a4 - 624 y_a4_proc_2 >= -1
 c291: u_a3 - u_a4 - 1024 y_a4_proc_1 >= -2581
 c292: u_a3 - u_a4 - 742 y_a4_proc_3 >= -2581
 c293: u_a5 - u_a3 - 1029 y_a3_proc_0 >= -2599
 c294: u_a5 - u_a3 - 890 y_a3_proc_2 >= -1309
 c295: u_a5 - u_a3 - 754 y_a3_proc_1 >= -1309
 c296: u_a3 - u_a5 - 1269 y_a5_proc_0 >= -2562
 c297: u_a3 - u_a5 - 1147 y_a5_proc_2 >= -1272
 c298: u_a3 - u_a5 - 1063 y_a5_proc_1 >= -1272
 c299: u_a6 - u_a3 - 1029 y_a3_proc_0 >= -2599
 c300: u_a6 - u_a3 - 890 y_a3_proc_2 >= -1309
 c301: u_a6 - u_a3 - 758 y_a3_proc_3 >= -1309
 c302: u_a3 - u_a6 - 1184 y_a6_proc_0 >= -2562
 c303: u_a3 - u_a6 - 1166 y_a6_proc_2 >= -1272
 c304: u_a3 - u_a6 - 831 y_a6_proc_3 >= -1272
 c305: u_a7 - u_a3 - 1029 y_a3_proc_0 >= -1309
 c306: u_a7 - u_a3 - 890 y_a3_proc_2 >= -1309
 c307: u_a7 - u_a3 - 754 y_a3_proc_1 >= -2599
 c308: u_a7 - u_a3 - 758 y_a3_proc_3 >= -2599
 c309: u_a3 - u_a7 - 941 y_a7_proc_0 >= -1272
 c310: u_a3 - u_a7 - 928 y_a7_proc_2 >= -1272
 c311: u_a3 - u_a7 - 1258 y_a7_proc_1 >= -2562
 c312: u_a3 - u_a7 - 917 y_a7_proc_3 >= -2562
 c313: u_a8 - u_a3 - 1029 y_a3_proc_0 >= -2599
 c314: u_a8 - u_a3 - 890 y_a3_proc_2 >= -1309
 c315: u_a8 - u_a3 - 758 y_a3_proc_3 >= -1309
 c316: u_a3 - u_a8 - 1251 y_a8_proc_0 >= -2562
 c317: u_a3 - u_a8 - 1072 y_a8_proc_2 >= -1272
 c318: u_a3 - u_a8 - 848 y_a8_proc_3 >= -1272
 c319: u_a9 - u_a3 - 1029 y_a3_proc_0 >= -2580
 c320: u_a9 - u_a3 - 890 y_a3_proc_2 >= 0
 c321: u_a3 - u_a9 - 1117 y_a9_proc_0 >= -2581
 c322: u_a3 - u_a9 - 1086 y_a9_proc_2 >= -1
 c323: u_a10 - u_a3 - 1029 y_a3_proc_0 >= -2599
 c324: u_a10 - u_a3 - 890 y_a3_proc_2 >= -1309
 c325: u_a10 - u_a3 - 754 y_a3_proc_1 >= -1309
 c326: u_a3 - u_a10 - 889 y_a10_proc_0 >= -2562
 c327: u_a3 - u_a10 - 1204 y_a10_proc_2 >= -1272
 c328: u_a3 - u_a10 - 767 y_a10_proc_1 >= -1272
 c329: u_a11 - u_a3 - 890 y_a3_proc_2 >= -1309
 c330: u_a11 - u_a3 - 754 y_a3_proc_1 >= -2599
 c331: u_a11 - u_a3 - 758 y_a3_proc_3 >= -1309
 c332: u_a3 - u_a11 - 959 y_a11_proc_2 >= -1272
 c333: u_a3 - u_a11 - 1226 y_a11_proc_1 >= -2562
 c334: u_a3 - u_a11 - 617 y_a11_proc_3 >= -1272
 c335: u_a12 - u_a3 - 754 y_a3_proc_1 >= -1309
 c336: u_a3 - u_a12 - 714 y_a12_proc_1 >= -1272
 c337: u_a13 - u_a3 - 890 y_a3_proc_2 >= -1309
 c338: u_a13 - u_a3 - 758 y_a3_proc_3 >= -1309
 c339: u_a3 - u_a13 - 692 y_a13_proc_2 >= -1272
 c340: u_a3 - u_a13 - 584 y_a13_proc_3 >= -1272
 c341: u_a14 - u_a3 - 1029 y_a3_proc_0 >= -1309
 c342: u_a14 - u_a3 - 890 y_a3_proc_2 >= -1309
 c343: u_a14 - u_a3 - 758 y_a3_proc_3 >= -2599
 c344: u_a3 - u_a14 - 909 y_a14_proc_0 >= -1272
 c345: u_a3 - u_a14 - 983 y_a14_proc_2 >= -1272
 c346: u_a3 - u_a14 - 931 y_a14_proc_3 >= -2562
 c347: u_a5 - u_a4 - 624 y_a4_proc_2 >= -1309
 c348: u_a5 - u_a4 - 1024 y_a4_proc_1 >= -1309
 c349: u_a4 - u_a5 - 1147 y_a5_proc_2 >= -1272
 c350: u_a4 - u_a5 - 1063 y_a5_proc_1 >= -1272
 c351: u_a6 - u_a4 - 624 y_a4_proc_2 >= -1309
 c352: u_a6 - u_a4 - 742 y_a4_proc_3 >= -1309
 c353: u_a4 - u_a6 - 1166 y_a6_proc_2 >= -1272
 c354: u_a4 - u_a6 - 831 y_a6_proc_3 >= -1272
 c355: u_a7 - u_a4 - 624 y_a4_proc_2 >= -1309
 c356: u_a7 - u_a4 - 1024 y_a4_proc_1 >= -2599
 c357: u_a7 - u_a4 - 742 y_a4_proc_3 >= -2599
 c358: u_a4 - u_a7 - 928 y_a7_proc_2 >= -1272
 c359: u_a4 - u_a7 - 1258 y_a7_proc_1 >= -2562
 c360: u_a4 - u_a7 - 917 y_a7_proc_3 >= -2562
 c361: u_a8 - u_a4 - 624 y_a4_proc_2 >= -1309
 c362: u_a8 - u_a4 - 742 y_a4_proc_3 >= -1309
 c363: u_a4 - u_a8 - 1072 y_a8_proc_2 >= -1272
 c364: u_a4 - u_a8 - 848 y_a8_proc_3 >= -1272
 c365: u_a9 - u_a4 - 624 y_a4_proc_2 >= -1
 c366: u_a4 - u_a9 - 1086 y_a9_proc_2 >= 0
 c367: u_a10 - u_a4 - 624 y_a4_proc_2 >= -1272
 c368: u_a10 - u_a4 - 1024 y_a4_proc_1 >= -1272
 c369: u_a4 - u_a10 - 1204 y_a10_proc_2 >= -1309
 c370: u_a4 - u_a10 - 767 y_a10_proc_1 >= -1309
 c371: u_a11 - u_a4 - 624 y_a4_proc_2 >= -1272
 c372: u_a11 - u_a4 - 1024 y_a4_proc_1 >= -2562
 c373: u_a11 - u_a4 - 742 y_a4_proc_3 >= -1272
 c374: u_a4 - u_a11 - 959 y_a11_proc_2 >= -1309
 c375: u_a4 - u_a11 - 1226 y_a11_proc_1 >= -2599
 c376: u_a4 - u_a11 - 617 y_a11_proc_3 >= -1309
 c377: u_a12 - u_a4 - 1024 y_a4_proc_1 >= -1309
 c378: u_a4 - u_a12 - 714 y_a12_proc_1 >= -1272
 c379: u_a13 - u_a4 - 624 y_a4_proc_2 >= -1309
 c380: u_a13 - u_a4 - 742 y_a4_proc_3 >= -1309
 c381: u_a4 - u_a13 - 692 y_a13_proc_2 >= -1272
 c382: u_a4 - u_a13 - 584 y_a13_proc_3 >= -1272
 c383: u_a14 - u_a4 - 624 y_a4_proc_2 >= -1309
 c384: u_a14 - u_a4 - 742 y_a4_proc_3 >= -2599
 c385: u_a4 - u_a14 - 983 y_a14_proc_2 >= -1272
 c386: u_a4 - u_a14 - 931 y_a14_proc_3 >= -2562
 c387: u_a6 - u_a5 - 1269 y_a5_proc_0 >= -2599
 c388: u_a6 - u_a5 - 1147 y_a5_proc_2 >= -2599
 c389: u_a5 - u_a6 - 1184 y_a6_proc_0 >= -2562
 c390: u_a5 - u_a6 - 1166 y_a6_proc_2 >= -2562
 c391: u_a7 - u_a5 - 1269 y_a5_proc_0 >= -1309
 c392: u_a7 - u_a5 - 1147 y_a5_proc_2 >= -2599
 c393: u_a7 - u_a5 - 1063 y_a5_proc_1 >= -1309
 c394: u_a5 - u_a7 - 941 y_a7_proc_0 >= -1272
 c395: u_a5 - u_a7 - 928 y_a7_proc_2 >= -2562
 c396: u_a5 - u_a7 - 1258 y_a7_proc_1 >= -1272
 c397: u_a8 - u_a5 - 1269 y_a5_proc_0 >= -2562
 c398: u_a8 - u_a5 - 1147 y_a5_proc_2 >= -2562
 c399: u_a5 - u_a8 - 1251 y_a8_proc_0 >= -2599
 c400: u_a5 - u_a8 - 1072 y_a8_proc_2 >= -2599
 c401: u_a9 - u_a5 - 1269 y_a5_proc_0 >= -2599
 c402: u_a9 - u_a5 - 1147 y_a5_proc_2 >= -1309
 c403: u_a5 - u_a9 - 1117 y_a9_proc_0 >= -2562
 c404: u_a5 - u_a9 - 1086 y_a9_proc_2 >= -1272
 c405: u_a10 - u_a5 - 1269 y_a5_proc_0 >= -2581
 c406: u_a10 - u_a5 - 1147 y_a5_proc_2 >= -2581
 c407: u_a10 - u_a5 - 1063 y_a5_proc_1 >= -1
 c408: u_a5 - u_a10 - 889 y_a10_proc_0 >= -2580
 c409: u_a5 - u_a10 - 1204 y_a10_proc_2 >= -2580
 c410: u_a5 - u_a10 - 767 y_a10_proc_1 >= 0
 c411: u_a11 - u_a5 - 1147 y_a5_proc_2 >= -2599
 c412: u_a11 - u_a5 - 1063 y_a5_proc_1 >= -1309
 c413: u_a5 - u_a11 - 959 y_a11_proc_2 >= -2562
 c414: u_a5 - u_a11 - 1226 y_a11_proc_1 >= -1272
 c415: u_a12 - u_a5 - 1063 y_a5_proc_1 >= -1
 c416: u_a5 - u_a12 - 714 y_a12_proc_1 >= 0
 c417: u_a13 - u_a5 - 1147 y_a5_proc_2 >= -2599
 c418: u_a5 - u_a13 - 692 y_a13_proc_2 >= -2562
 c419: u_a14 - u_a5 - 1269 y_a5_proc_0 >= -1272
 c420: u_a14 - u_a5 - 1147 y_a5_proc_2 >= -2562
 c421: u_a5 - u_a14 - 909 y_a14_proc_0 >= -1309
 c422: u_a5 - u_a14 - 983 y_a14_proc_2 >= -2599
 c423: u_a7 - u_a6 - 1184 y_a6_proc_0 >= -1272
 c424: u_a7 - u_a6 - 1166 y_a6_proc_2 >= -2562
 c425: u_a7 - u_a6 - 831 y_a6_proc_3 >= -1272
 c426: u_a6 - u_a7 - 941 y_a7_proc_0 >= -1309
 c427: u_a6 - u_a7 - 928 y_a7_proc_2 >= -2599
 c428: u_a6 - u_a7 - 917 y_a7_proc_3 >= -1309
 c429: u_a8 - u_a6 - 1184 y_a6_proc_0 >= -2581
 c430: u_a8 - u_a6 - 1166 y_a6_proc_2 >= -2581
 c431: u_a8 - u_a6 - 831 y_a6_proc_3 >= -1
 c432: u_a6 - u_a8 - 1251 y_a8_proc_0 >= -2580
 c433: u_a6 - u_a8 - 1072 y_a8_proc_2 >= -2580
 c434: u_a6 - u_a8 - 848 y_a8_proc_3 >= 0
 c435: u_a9 - u_a6 - 1184 y_a6_proc_0 >= -2599
 c436: u_a9 - u_a6 - 1166 y_a6_proc_2 >= -1309
 c437: u_a6 - u_a9 - 1117 y_a9_proc_0 >= -2562
 c438: u_a6 - u_a9 - 1086 y_a9_proc_2 >= -1272
 c439: u_a10 - u_a6 - 1184 y_a6_proc_0 >= -2599
 c440: u_a10 - u_a6 - 1166 y_a6_proc_2 >= -2599
 c441: u_a6 - u_a10 - 889 y_a10_proc_0 >= -2562
 c442: u_a6 - u_a10 - 1204 y_a10_proc_2 >= -2562
 c443: u_a11 - u_a6 - 1166 y_a6_proc_2 >= -2581
 c444: u_a11 - u_a6 - 831 y_a6_proc_3 >= -1
 c445: u_a6 - u_a11 - 959 y_a11_proc_2 >= -2580
 c446: u_a6 - u_a11 - 617 y_a11_proc_3 >= 0
 c447: u_a13 - u_a6 - 1166 y_a6_proc_2 >= -2580
 c448: u_a13 - u_a6 - 831 y_a6_proc_3 >= 0
 c449: u_a6 - u_a13 - 692 y_a13_proc_2 >= -2581
 c450: u_a6 - u_a13 - 584 y_a13_proc_3 >= -1
 c451: u_a14 - u_a6 - 1184 y_a6_proc_0 >= -1309
 c452: u_a14 - u_a6 - 1166 y_a6_proc_2 >= -2599
 c453: u_a14 - u_a6 - 831 y_a6_proc_3 >= -1309
 c454: u_a6 - u_a14 - 909 y_a14_proc_0 >= -1272
 c455: u_a6 - u_a14 - 983 y_a14_proc_2 >= -2562
 c456: u_a6 - u_a14 - 931 y_a14_proc_3 >= -1272
 c457: u_a8 - u_a7 - 941 y_a7_proc_0 >= -1309
 c458: u_a8 - u_a7 - 928 y_a7_proc_2 >= -2599
 c459: u_a8 - u_a7 - 917 y_a7_proc_3 >= -1309
 c460: u_a7 - u_a8 - 1251 y_a8_proc_0 >= -1272
 c461: u_a7 - u_a8 - 1072 y_a8_proc_2 >= -2562
 c462: u_a7 - u_a8 - 848 y_a8_proc_3 >= -1272
 c463: u_a9 - u_a7 - 941 y_a7_proc_0 >= -1309
 c464: u_a9 - u_a7 - 928 y_a7_proc_2 >= -1309
 c465: u_a7 - u_a9 - 1117 y_a9_proc_0 >= -1272
 c466: u_a7 - u_a9 - 1086 y_a9_proc_2 >= -1272
 c467: u_a10 - u_a7 - 941 y_a7_proc_0 >= -1309
 c468: u_a10 - u_a7 - 928 y_a7_proc_2 >= -2599
 c469: u_a10 - u_a7 - 1258 y_a7_proc_1 >= -1309
 c470: u_a7 - u_a10 - 889 y_a10_proc_0 >= -1272
 c471: u_a7 - u_a10 - 1204 y_a10_proc_2 >= -2562
 c472: u_a7 - u_a10 - 767 y_a10_proc_1 >= -1272
 c473: u_a11 - u_a7 - 928 y_a7_proc_2 >= -2599
 c474: u_a11 - u_a7 - 1258 y_a7_proc_1 >= -2599
 c475: u_a11 - u_a7 - 917 y_a7_proc_3 >= -1309
 c476: u_a7 - u_a11 - 959 y_a11_proc_2 >= -2562
 c477: u_a7 - u_a11 - 1226 y_a11_proc_1 >= -2562
 c478: u_a7 - u_a11 - 617 y_a11_proc_3 >= -1272
 c479: u_a12 - u_a7 - 1258 y_a7_proc_1 >= -1309
 c480: u_a7 - u_a12 - 714 y_a12_proc_1 >= -1272
 c481: u_a13 - u_a7 - 928 y_a7_proc_2 >= -2599
 c482: u_a13 - u_a7 - 917 y_a7_proc_3 >= -1309
 c483: u_a7 - u_a13 - 692 y_a13_proc_2 >= -2562
 c484: u_a7 - u_a13 - 584 y_a13_proc_3 >= -1272
 c485: u_a14 - u_a7 - 941 y_a7_proc_0 >= 0
 c486: u_a14 - u_a7 - 928 y_a7_proc_2 >= -2580
 c487: u_a14 - u_a7 - 917 y_a7_proc_3 >= -2580
 c488: u_a7 - u_a14 - 909 y_a14_proc_0 >= -1
 c489: u_a7 - u_a14 - 983 y_a14_proc_2 >= -2581
 c490: u_a7 - u_a14 - 931 y_a14_proc_3 >= -2581
 c491: u_a9 - u_a8 - 1251 y_a8_proc_0 >= -2599
 c492: u_a9 - u_a8 - 1072 y_a8_proc_2 >= -1309
 c493: u_a8 - u_a9 - 1117 y_a9_proc_0 >= -2562
 c494: u_a8 - u_a9 - 1086 y_a9_proc_2 >= -1272
 c495: u_a10 - u_a8 - 1251 y_a8_proc_0 >= -2599
 c496: u_a10 - u_a8 - 1072 y_a8_proc_2 >= -2599
 c497: u_a8 - u_a10 - 889 y_a10_proc_0 >= -2562
 c498: u_a8 - u_a10 - 1204 y_a10_proc_2 >= -2562
 c499: u_a11 - u_a8 - 1072 y_a8_proc_2 >= -2580
 c500: u_a11 - u_a8 - 848 y_a8_proc_3 >= 0
 c501: u_a8 - u_a11 - 959 y_a11_proc_2 >= -2581
 c502: u_a8 - u_a11 - 617 y_a11_proc_3 >= -1
 c503: u_a13 - u_a8 - 1072 y_a8_proc_2 >= -2580
 c504: u_a13 - u_a8 - 848 y_a8_proc_3 >= 0
 c505: u_a8 - u_a13 - 692 y_a13_proc_2 >= -2581
 c506: u_a8 - u_a13 - 584 y_a13_proc_3 >= -1
 c507: u_a14 - u_a8 - 1251 y_a8_proc_0 >= -1309
 c508: u_a14 - u_a8 - 1072 y_a8_proc_2 >= -2599
 c509: u_a14 - u_a8 - 848 y_a8_proc_3 >= -1309
 c510: u_a8 - u_a14 - 909 y_a14_proc_0 >= -1272
 c511: u_a8 - u_a14 - 983 y_a14_proc_2 >= -2562
 c512: u_a8 - u_a14 - 931 y_a14_proc_3 >= -1272
 c513: u_a10 - u_a9 - 1117 y_a9_proc_0 >= -2599
 c514: u_a10 - u_a9 - 1086 y_a9_proc_2 >= -1309
 c515: u_a9 - u_a10 - 889 y_a10_proc_0 >= -2562
 c516: u_a9 - u_a10 - 1204 y_a10_proc_2 >= -1272
 c517: u_a11 - u_a9 - 1086 y_a9_proc_2 >= -1309
 c518: u_a9 - u_a11 - 959 y_a11_proc_2 >= -1272
 c519: u_a13 - u_a9 - 1086 y_a9_proc_2 >= -1309
 c520: u_a9 - u_a13 - 692 y_a13_proc_2 >= -1272
 c521: u_a14 - u_a9 - 1117 y_a9_proc_0 >= -1309
 c522: u_a14 - u_a9 - 1086 y_a9_proc_2 >= -1309
 c523: u_a9 - u_a14 - 909 y_a14_proc_0 >= -1272
 c524: u_a9 - u_a14 - 983 y_a14_proc_2 >= -1272
 c525: u_a11 - u_a10 - 1204 y_a10_proc_2 >= -2599
 c526: u_a11 - u_a10 - 767 y_a10_proc_1 >= -1309
 c527: u_a10 - u_a11 - 959 y_a11_proc_2 >= -2562
 c528: u_a10 - u_a11 - 1226 y_a11_proc_1 >= -1272
 c529: u_a12 - u_a10 - 767 y_a10_proc_1 >= 0
 c530: u_a10 - u_a12 - 714 y_a12_proc_1 >= -1
 c531: u_a13 - u_a10 - 1204 y_a10_proc_2 >= -2599
 c532: u_a10 - u_a13 - 692 y_a13_proc_2 >= -2562
 c533: u_a14 - u_a10 - 889 y_a10_proc_0 >= -1309
 c534: u_a14 - u_a10 - 1204 y_a10_proc_2 >= -2599
 c535: u_a10 - u_a14 - 909 y_a14_proc_0 >= -1272
 c536: u_a10 - u_a14 - 983 y_a14_proc_2 >= -2562
 c537: u_a12 - u_a11 - 1226 y_a11_proc_1 >= -1309
 c538: u_a11 - u_a12 - 714 y_a12_proc_1 >= -1272
 c539: u_a13 - u_a11 - 959 y_a11_proc_2 >= -2580
 c540: u_a13 - u_a11 - 617 y_a11_proc_3 >= 0
 c541: u_a11 - u_a13 - 692 y_a13_proc_2 >= -2581
 c542: u_a11 - u_a13 - 584 y_a13_proc_3 >= -1
 c543: u_a14 - u_a11 - 959 y_a11_proc_2 >= -2599
 c544: u_a14 - u_a11 - 617 y_a11_proc_3 >= -1309
 c545: u_a11 - u_a14 - 983 y_a14_proc_2 >= -2562
 c546: u_a11 - u_a14 - 931 y_a14_proc_3 >= -1272
 c547: u_a14 - u_a13 - 692 y_a13_proc_2 >= -2599
 c548: u_a14 - u_a13 - 584 y_a13_proc_3 >= -1309
 c549: u_a13 - u_a14 - 983 y_a14_proc_2 >= -2562
 c550: u_a13 - u_a14 - 931 y_a14_proc_3 >= -1272

Bounds
End
